Version identifier: 22.1.1.0 | 2022-11-28 | 9160aff4d
CPXPARAM_TimeLimit                               3600
Tried aggregator 1 time.
MIP Presolve eliminated 50 rows and 1 columns.
Reduced MIP has 7700 rows, 2653 columns, and 23000 nonzeros.
Reduced MIP has 2653 binaries, 0 generals, 0 SOSs, and 0 indicators.
Presolve time = 0.02 sec. (15.32 ticks)
Found incumbent of value 5633745.000000 after 0.02 sec. (18.75 ticks)
Probing time = 0.01 sec. (3.83 ticks)
Tried aggregator 1 time.
Detecting symmetries...
Reduced MIP has 7700 rows, 2653 columns, and 23000 nonzeros.
Reduced MIP has 2653 binaries, 0 generals, 0 SOSs, and 0 indicators.
Presolve time = 0.02 sec. (17.94 ticks)
Probing time = 0.01 sec. (3.83 ticks)
Clique table members: 2500.
MIP emphasis: balance optimality and feasibility.
MIP search method: dynamic search.
Parallel mode: deterministic, using up to 8 threads.
Root relaxation solution time = 0.01 sec. (12.61 ticks)

        Nodes                                         Cuts/
   Node  Left     Objective  IInf  Best Integer    Best Bound    ItCnt     Gap

*     0+    0                      5633745.0000        0.0000           100.00%
*     0+    0                      3623351.0000        0.0000           100.00%
*     0+    0                       351981.0000        0.0000           100.00%
*     0+    0                       325550.0000        0.0000           100.00%
*     0+    0                       234768.0000        0.0000           100.00%
      0     0    93774.0000   100   234768.0000    93774.0000      158   60.06%
*     0+    0                       166657.0000    93774.0000            43.73%
      0     0   106217.5000   100   166657.0000     Cuts: 272      262   36.27%
      0     0   118774.0000    98   166657.0000     Cuts: 265      395   28.73%
*     0+    0                       145459.0000   118774.0000            18.35%
Detecting symmetries...

Repeating presolve.
Tried aggregator 2 times.
MIP Presolve eliminated 6510 rows and 1969 columns.
MIP Presolve modified 693 coefficients.
Aggregator did 5 substitutions.
Reduced MIP has 1185 rows, 679 columns, and 4008 nonzeros.
Reduced MIP has 679 binaries, 0 generals, 0 SOSs, and 0 indicators.
Presolve time = 0.01 sec. (7.61 ticks)
Probing time = 0.00 sec. (0.98 ticks)
Tried aggregator 1 time.
Detecting symmetries...
Reduced MIP has 1185 rows, 679 columns, and 4008 nonzeros.
Reduced MIP has 679 binaries, 0 generals, 0 SOSs, and 0 indicators.
Presolve time = 0.00 sec. (3.82 ticks)
Represolve time = 0.01 sec. (18.62 ticks)
Probing time = 0.00 sec. (0.98 ticks)
Clique table members: 808.
MIP emphasis: balance optimality and feasibility.
MIP search method: dynamic search.
Parallel mode: deterministic, using up to 8 threads.
Root relaxation solution time = 0.01 sec. (13.00 ticks)

        Nodes                                         Cuts/
   Node  Left     Objective  IInf  Best Integer    Best Bound    ItCnt     Gap

*     0+    0                       145459.0000   118774.0000            18.35%
      0     0   140924.0000    82   145459.0000   140924.0000      752    3.12%
      0     0   141408.1667   124   145459.0000      Cuts: 32      784    2.78%
      0     0   141590.2029   133   145459.0000      Cuts: 65      823    2.66%
Detecting symmetries...

Repeating presolve.
Tried aggregator 1 time.
MIP Presolve eliminated 543 rows and 290 columns.
MIP Presolve modified 210 coefficients.
Reduced MIP has 642 rows, 389 columns, and 2131 nonzeros.
Reduced MIP has 389 binaries, 0 generals, 0 SOSs, and 0 indicators.
Presolve time = 0.00 sec. (2.77 ticks)
Probing time = 0.00 sec. (0.37 ticks)
Tried aggregator 1 time.
Detecting symmetries...
MIP Presolve eliminated 48 rows and 0 columns.
Reduced MIP has 594 rows, 389 columns, and 2035 nonzeros.
Reduced MIP has 389 binaries, 0 generals, 0 SOSs, and 0 indicators.
Presolve time = 0.00 sec. (2.56 ticks)
Represolve time = 0.01 sec. (8.04 ticks)
Probing time = 0.00 sec. (0.37 ticks)
Clique table members: 594.
MIP emphasis: balance optimality and feasibility.
MIP search method: dynamic search.
Parallel mode: deterministic, using up to 8 threads.
Root relaxation solution time = 0.01 sec. (12.06 ticks)

        Nodes                                         Cuts/
   Node  Left     Objective  IInf  Best Integer    Best Bound    ItCnt     Gap

*     0+    0                       145459.0000   141590.2029             2.66%
      0     0   141633.6500   127   145459.0000   141633.6500     1224    2.63%
*     0+    0                       143239.0000   141633.6500             1.12%

Implied bound cuts applied:  76
Zero-half cuts applied:  59
Lift and project cuts applied:  11
Gomory fractional cuts applied:  1

Root node processing (before b&c):
  Real time             =    0.38 sec. (281.42 ticks)
Parallel b&c, 8 threads:
  Real time             =    0.00 sec. (0.00 ticks)
  Sync time (average)   =    0.00 sec.
  Wait time (average)   =    0.00 sec.
                          ------------
Total (root+branch&cut) =    0.38 sec. (281.42 ticks)
Status: Optimal
Obj: 143239

Instalacoes abertas:
Instalação 4 aberta
Instalação 9 aberta
Instalação 20 aberta
Instalação 22 aberta

Atribuições (cliente -> instalação):
Cliente 0 -> Instalação 20
Cliente 1 -> Instalação 4
Cliente 2 -> Instalação 9
Cliente 3 -> Instalação 20
Cliente 4 -> Instalação 4
Cliente 5 -> Instalação 20
Cliente 6 -> Instalação 9
Cliente 7 -> Instalação 20
Cliente 8 -> Instalação 4
Cliente 9 -> Instalação 9
Cliente 10 -> Instalação 20
Cliente 11 -> Instalação 4
Cliente 12 -> Instalação 20
Cliente 13 -> Instalação 9
Cliente 14 -> Instalação 20
Cliente 15 -> Instalação 4
Cliente 16 -> Instalação 9
Cliente 17 -> Instalação 4
Cliente 18 -> Instalação 9
Cliente 19 -> Instalação 20
Cliente 20 -> Instalação 20
Cliente 21 -> Instalação 9
Cliente 22 -> Instalação 22
Cliente 23 -> Instalação 9
Cliente 24 -> Instalação 9
Cliente 25 -> Instalação 9
Cliente 26 -> Instalação 9
Cliente 27 -> Instalação 20
Cliente 28 -> Instalação 4
Cliente 29 -> Instalação 20
Cliente 30 -> Instalação 4
Cliente 31 -> Instalação 9
Cliente 32 -> Instalação 4
Cliente 33 -> Instalação 20
Cliente 34 -> Instalação 4
Cliente 35 -> Instalação 4
Cliente 36 -> Instalação 20
Cliente 37 -> Instalação 9
Cliente 38 -> Instalação 9
Cliente 39 -> Instalação 20
Cliente 40 -> Instalação 9
Cliente 41 -> Instalação 4
Cliente 42 -> Instalação 9
Cliente 43 -> Instalação 4
Cliente 44 -> Instalação 9
Cliente 45 -> Instalação 4
Cliente 46 -> Instalação 4
Cliente 47 -> Instalação 4
Cliente 48 -> Instalação 20
Cliente 49 -> Instalação 9
